50, 1050600
3878, 14704
3788, 14980
4003, 14081
3881, 14160
3971, 14655
4007, 14582
3790, 14996
3849, 14699
3883, 14564
3786, 14422
3846, 14243
3778, 14563
3951, 14501
3894, 15001
3841, 14145
4002, 14609
3864, 14107
3920, 14859
3804, 14253
4032, 14934
4002, 14913
3955, 14788
3998, 14957
3854, 14272
4027, 14220
187700, 1027268
183946, 1013706
180192, 1000002
176438, 986360
172684, 973354
168930, 959396
165176, 945480
161422, 931618
157668, 917636
153914, 904989
150160, 891367
146406, 877632
142652, 863639
138898, 849782
135144, 836292
131390, 822361
127636, 809096
123882, 795174
120128, 781443
116374, 767844
112620, 754216
108866, 740795
105112, 727358
101358, 713860
97604, 699989
